Traveling Salesman Problem/TSP_generados/Aleatorio1620391007_12.tsp
NAME: Aleatorio1620391007_12.tsp
COMMENT: Randomly generated scenario
TYPE: TSP
DIMENSION: 12
EDGE_WEIGHT_TYPE: ATT
NODE_COORD_SECTION
1 38.07 43.83
2 41.41 18.15
3 45.18 34.44
4 18.73 17.66
5 10.94 7.77
6 23.15 18.48
7 25.2 26.11
8 3.21 43.02
9 40.04 12.31
10 47.22 10.62
11 7.27 25.64
12 29.16 39.15
