Traveling Salesman Problem/TSP_generados/Aleatorio1620391007_12.opt.tour
NAME: Aleatorio1620391007_12.opt.tour
COMMENT: Optimal solution for Aleatorio1620391007_12 (163.02839066302596)
TYPE: TOUR
DIMENSION: 12
TOUR_SECTION
1 3 2 10 9 7 6 4 5 11 8 12
-1
EOF
